[VALIDATOR STDOUT]
Checking plan: /home/jfan5/Safety-gen/runs/benchmark/optic/ferry_20260205_113042/ferry/optic_results/ferry-l12-c07-s12001.plan
Plan executed successfully - checking goal
Plan valid
Final value: 24 

Successful plans:
Value: 24
 /home/jfan5/Safety-gen/runs/benchmark/optic/ferry_20260205_113042/ferry/optic_results/ferry-l12-c07-s12001.plan 24
